Version identifier: 22.1.0.0 | 2022-03-09 | 1a383f8ce
CPXPARAM_Threads                                 1
CPXPARAM_MIP_Strategy_VariableSelect             3
CPXPARAM_TimeLimit                               596.89480909999997
1 of 1 MIP starts provided solutions.
MIP start 'm1' defined initial solution with objective 280.0000.
Tried aggregator 1 time.
MIP Presolve eliminated 13 rows and 0 columns.
MIP Presolve modified 1 coefficients.
Reduced MIP has 2105 rows, 5700 columns, and 75624 nonzeros.
Reduced MIP has 5700 binaries, 0 generals, 0 SOSs, and 0 indicators.
Presolve time = 0.05 sec. (36.25 ticks)
Probing time = 0.01 sec. (4.16 ticks)
Tried aggregator 1 time.
Detecting symmetries...
Reduced MIP has 2105 rows, 5700 columns, and 75624 nonzeros.
Reduced MIP has 5700 binaries, 0 generals, 0 SOSs, and 0 indicators.
Presolve time = 0.06 sec. (41.92 ticks)
Probing time = 0.01 sec. (4.16 ticks)
Clique table members: 1193.
MIP emphasis: balance optimality and feasibility.
MIP search method: dynamic search.
Parallel mode: none, using 1 thread.
Root relaxation solution time = 1.21 sec. (1201.85 ticks)

        Nodes                                         Cuts/
   Node  Left     Objective  IInf  Best Integer    Best Bound    ItCnt     Gap

*     0+    0                          280.0000     5700.0000              --- 
      0     0      300.0000  1301      280.0000      300.0000     4451    7.14%
      0     0      300.0000   987      280.0000      Cuts: 10     4848    7.14%
      0     0      300.0000  1268      280.0000     Cuts: 260    11241    7.14%
      0     0      300.0000  1237      280.0000      Cuts: 12    17956    7.14%
      0     0      300.0000  1202      280.0000      Cuts: 41    23434    7.14%
      0     0      300.0000  1231      280.0000      Cuts: 16    30597    7.14%
Detecting symmetries...
Detecting symmetries...
      0     2      300.0000   845      280.0000      300.0000    30597    7.14%
Elapsed time = 90.87 sec. (92291.35 ticks, tree = 0.01 MB, solutions = 1)
      1     1        cutoff            280.0000      300.0000    31940    7.14%
      2     2      300.0000  1176      280.0000      300.0000    38410    7.14%
      3     3      300.0000  1163      280.0000      300.0000    38517    7.14%
      4     4      300.0000  1220      280.0000      300.0000    44478    7.14%
      5     5      300.0000  1175      280.0000      300.0000    44811    7.14%
      6     6      300.0000  1193      280.0000      300.0000    45025    7.14%
      7     7      300.0000  1217      280.0000      300.0000    57610    7.14%
      8     8      300.0000  1169      280.0000      300.0000    57933    7.14%
      9     9      300.0000  1161      280.0000      300.0000    67800    7.14%
     10    10      300.0000  1093      280.0000      300.0000    80188    7.14%
Elapsed time = 111.83 sec. (114586.72 ticks, tree = 0.06 MB, solutions = 1)
     11    11      300.0000  1177      280.0000      300.0000    90833    7.14%
     12    12      300.0000  1109      280.0000      300.0000   101731    7.14%
     14    14      300.0000  1114      280.0000      300.0000   111823    7.14%
     16    16      300.0000  1198      280.0000      300.0000   122871    7.14%
     17    17      300.0000  1159      280.0000      300.0000   129413    7.14%
     18    18      300.0000  1115      280.0000      300.0000   134292    7.14%
     20    20      300.0000  1146      280.0000      300.0000   140944    7.14%
     23    23      300.0000  1125      280.0000      300.0000   141667    7.14%
     25    25      300.0000  1100      280.0000      300.0000   142644    7.14%
     27    27      300.0000  1121      280.0000      300.0000   143518    7.14%
Elapsed time = 140.50 sec. (145165.48 ticks, tree = 0.11 MB, solutions = 1)
     30    30      300.0000  1100      280.0000      300.0000   144410    7.14%
     32    32      300.0000  1128      280.0000      300.0000   145586    7.14%
     34    34      300.0000  1110      280.0000      300.0000   146348    7.14%
     36    36      300.0000  1141      280.0000      300.0000   147146    7.14%
     38    38      300.0000  1117      280.0000      300.0000   148140    7.14%
     40    40      300.0000  1149      280.0000      300.0000   149237    7.14%
     42    42      300.0000  1135      280.0000      300.0000   149991    7.14%
     43    43      300.0000  1107      280.0000      300.0000   151300    7.14%
     44    44      300.0000  1060      280.0000      300.0000   160156    7.14%
     45    45      300.0000  1021      280.0000      300.0000   161392    7.14%
Elapsed time = 153.21 sec. (159597.85 ticks, tree = 0.16 MB, solutions = 1)
     47    47      300.0000  1016      280.0000      300.0000   163142    7.14%
     50    50      300.0000   999      280.0000      300.0000   163588    7.14%
     52    51      299.9764  1011      280.0000      300.0000   171326    7.14%
     54    53      300.0000  1046      280.0000      300.0000   172164    7.14%
     57    56      299.9893  1035      280.0000      300.0000   174030    7.14%
     59    58      299.9410  1029      280.0000      300.0000   175800    7.14%
     60    59      300.0000   956      280.0000      300.0000   185256    7.14%
     62    61      299.8177  1028      280.0000      300.0000   187541    7.14%
     64    63      300.0000   967      280.0000      300.0000   188975    7.14%
     67    66      299.8121  1028      280.0000      300.0000   190901    7.14%
Elapsed time = 169.79 sec. (178238.82 ticks, tree = 0.21 MB, solutions = 1)
     69    68      300.0000  1011      280.0000      300.0000   198363    7.14%
     70    69      300.0000   999      280.0000      300.0000   205679    7.14%
     72    71      299.0345  1000      280.0000      300.0000   207225    7.14%
     74    73      300.0000   975      280.0000      300.0000   208977    7.14%
     76    75      299.9547  1011      280.0000      300.0000   210464    7.14%
     78    77      299.9346   952      280.0000      300.0000   212357    7.14%
     81    80      299.9882  1016      280.0000      300.0000   214037    7.14%
     83    80    infeasible            280.0000      300.0000   215583    7.14%
     85    82      299.7352  1048      280.0000      300.0000   222352    7.14%
     86    83      300.0000   983      280.0000      300.0000   230905    7.14%
Elapsed time = 185.78 sec. (196057.47 ticks, tree = 0.25 MB, solutions = 1)
     88    85      299.6166   932      280.0000      300.0000   233682    7.14%
     90    87      299.9134   945      280.0000      300.0000   241626    7.14%
     91    88      300.0000   943      280.0000      300.0000   246233    7.14%
     93    90      299.5611   964      280.0000      300.0000   249080    7.14%
     95    91      299.8657   873      280.0000      300.0000   275409    7.14%
     97    93      300.0000   960      280.0000      300.0000   277000    7.14%
     99    95      299.7696  1004      280.0000      300.0000   279305    7.14%
    100    95      299.7463   965      280.0000      300.0000   290836    7.14%
    101    96      300.0000  1068      280.0000      300.0000   293300    7.14%
    102    96      299.8747   967      280.0000      300.0000   309424    7.14%
Elapsed time = 213.25 sec. (224426.45 ticks, tree = 0.28 MB, solutions = 1)
    104    98      299.8935  1041      280.0000      300.0000   311197    7.14%
    105    99      300.0000  1053      280.0000      300.0000   311209    7.14%
    107   101      299.8839   996      280.0000      300.0000   313731    7.14%
    109   103      300.0000   977      280.0000      300.0000   317667    7.14%
    110   104      300.0000   959      280.0000      300.0000   317767    7.14%
    112   106      299.9687   946      280.0000      300.0000   319597    7.14%
    115   109      300.0000   967      280.0000      300.0000   321161    7.14%
    117   111      300.0000   973      280.0000      300.0000   323165    7.14%
    119   113      300.0000   963      280.0000      300.0000   325093    7.14%
    120   114      300.0000   977      280.0000      300.0000   325585    7.14%
Elapsed time = 236.58 sec. (249660.12 ticks, tree = 0.32 MB, solutions = 1)
    122   116      299.9703   879      280.0000      300.0000   328061    7.14%
    124   118      299.8695   955      280.0000      300.0000   329497    7.14%
    126   120      299.7121   898      280.0000      300.0000   331588    7.14%
    128   122      300.0000  1011      280.0000      300.0000   333175    7.14%
    129   123      299.9265   843      280.0000      300.0000   356180    7.14%
    131   125      299.8685   987      280.0000      300.0000   357959    7.14%
    133   127      300.0000   965      280.0000      300.0000   358455    7.14%
    134   128      299.7972   928      280.0000      300.0000   360428    7.14%
    135   129      299.8283   922      280.0000      300.0000   361918    7.14%
    138   132      299.9243   947      280.0000      300.0000   363454    7.14%
Elapsed time = 252.25 sec. (267229.73 ticks, tree = 0.37 MB, solutions = 1)
    140   134      299.9645   935      280.0000      300.0000   366136    7.14%
    142   136      299.9243   970      280.0000      300.0000   367694    7.14%
    144   138      299.8695   952      280.0000      300.0000   369153    7.14%
    147   141      298.9706   917      280.0000      300.0000   371225    7.14%
    149   143      299.8492  1001      280.0000      300.0000   372749    7.14%
    150   144      300.0000   966      280.0000      300.0000   373224    7.14%
    152   146      300.0000   969      280.0000      300.0000   374764    7.14%
    154   148      299.8436   990      280.0000      300.0000   376753    7.14%
    156   150      299.5088   991      280.0000      300.0000   378270    7.14%
    158   152      299.8283   941      280.0000      300.0000   379925    7.14%
Elapsed time = 264.09 sec. (280783.22 ticks, tree = 0.42 MB, solutions = 1)
    160   154      299.8450   989      280.0000      300.0000   381539    7.14%
    162   156      299.8895   998      280.0000      300.0000   383880    7.14%
    165   159      299.8078   832      280.0000      300.0000   389618    7.14%
    168   162      299.5815   992      280.0000      300.0000   391490    7.14%
    170   164      299.9844   882      280.0000      300.0000   393821    7.14%
    173   167      299.8199   976      280.0000      300.0000   395321    7.14%
    175   169      299.5488   935      280.0000      300.0000   396972    7.14%
    177   171      299.5503   963      280.0000      300.0000   398784    7.14%
    178   172      299.7972   915      280.0000      300.0000   400679    7.14%
    184   178      299.8805   890      280.0000      300.0000   406164    7.14%
Elapsed time = 283.40 sec. (302681.39 ticks, tree = 0.48 MB, solutions = 1)
    192   184      299.5179   994      280.0000      300.0000   412694    7.14%
    199   191      299.8157   898      280.0000      300.0000   421438    7.14%
    204   196      300.0000   958      280.0000      300.0000   438984    7.14%
    210   202      299.8587   881      280.0000      300.0000   447550    7.14%
    217   209      300.0000   942      280.0000      300.0000   452951    7.14%
    224   216      299.8514   887      280.0000      300.0000   459626    7.14%
    231   223      299.7899   885      280.0000      300.0000   464819    7.14%
    238   230      299.7601   899      280.0000      300.0000   470049    7.14%
    241   233      299.7443   900      280.0000      300.0000   481255    7.14%
    248   240      300.0000   939      280.0000      300.0000   486371    7.14%
Elapsed time = 323.48 sec. (347602.66 ticks, tree = 0.63 MB, solutions = 1)
    254   245      299.7702   854      280.0000      300.0000   497569    7.14%
    260   251      299.7823   943      280.0000      300.0000   506457    7.14%
    266   257      299.6145   965      280.0000      300.0000   512726    7.14%
    273   264      300.0000   981      280.0000      300.0000   518587    7.14%
    276   267      299.4235   905      280.0000      300.0000   528992    7.14%
    284   275      299.7601   897      280.0000      300.0000   536079    7.14%
    290   281      299.7679   913      280.0000      300.0000   542214    7.14%
    295   286      300.0000   938      280.0000      300.0000   553061    7.14%
    302   293      299.8071   918      280.0000      300.0000   562525    7.14%
    309   300      299.9495   911      280.0000      300.0000   568863    7.14%
Elapsed time = 363.05 sec. (391753.83 ticks, tree = 0.79 MB, solutions = 1)
    312   303      300.0000   943      280.0000      300.0000   579574    7.14%
    319   310      299.7985   843      280.0000      300.0000   587474    7.14%
    327   318      300.0000   922      280.0000      300.0000   597578    7.14%
    330   321      300.0000   851      280.0000      300.0000   613928    7.14%
    336   327      300.0000   857      280.0000      300.0000   627651    7.14%
    341   332      300.0000   854      280.0000      300.0000   637065    7.14%
    346   337      300.0000   854      280.0000      300.0000   644441    7.14%
    352   343      299.7918   906      280.0000      300.0000   659083    7.14%
    359   350      299.6179   737      280.0000      300.0000   670283    7.14%
    361   352      299.3501   797      280.0000      300.0000   674738    7.14%
Elapsed time = 404.30 sec. (436184.25 ticks, tree = 0.91 MB, solutions = 1)
    368   359      299.5633   781      280.0000      300.0000   683415    7.14%
    374   365      299.2951   809      280.0000      300.0000   693710    7.14%
    380   371      297.8788   833      280.0000      300.0000   704793    7.14%
    389   380      296.9118   650      280.0000      300.0000   710216    7.14%
    396   386      296.7931   778      280.0000      300.0000   726241    7.14%
    400   390      296.0000   744      280.0000      300.0000   733960    7.14%
    411   399      295.8601   728      280.0000      300.0000   739466    7.14%
    421   409      295.7013   672      280.0000      300.0000   747098    7.14%
    432   420      295.0000   648      280.0000      300.0000   755115    7.14%
    447   430      294.6403   592      280.0000      300.0000   764030    7.14%
Elapsed time = 454.58 sec. (487841.03 ticks, tree = 1.10 MB, solutions = 1)
    463   444      294.2212   559      280.0000      300.0000   773247    7.14%
    482   462      292.9784   487      280.0000      300.0000   780195    7.14%
    504   477      292.2825   471      280.0000      300.0000   788292    7.14%
    527   495      289.6455   345      280.0000      300.0000   798114    7.14%
    556   509      299.9470   974      280.0000      300.0000   819402    7.14%
    565   518      299.8004   937      280.0000      300.0000   825213    7.14%
    573   526      299.6742   865      280.0000      300.0000   833080    7.14%
    579   531      299.5622   833      280.0000      300.0000   842973    7.14%
    585   536      299.2555   744      280.0000      300.0000   854936    7.14%
    592   543      298.5480   740      280.0000      300.0000   865403    7.14%
Elapsed time = 501.33 sec. (535441.29 ticks, tree = 1.40 MB, solutions = 1)
    600   549      297.9039   744      280.0000      300.0000   873832    7.14%
    609   556      297.6567   799      280.0000      300.0000   887107    7.14%
    615   560      297.2155   757      280.0000      300.0000   897541    7.14%
    620   565      297.0781   821      280.0000      300.0000   907885    7.14%
    630   574      295.8462   691      280.0000      300.0000   915308    7.14%
    643   581      295.3218   675      280.0000      300.0000   923361    7.14%
    657   588      294.4433   563      280.0000      300.0000   930924    7.14%
    675   593    infeasible            280.0000      300.0000   939951    7.14%
    691   601      292.9561   530      280.0000      300.0000   946439    7.14%
Starting limited solution polishing.
*   700+  605                          281.0000      300.0000             6.76%
    713   613    infeasible            281.0000      300.0000   951833    6.76%
Elapsed time = 541.02 sec. (576560.56 ticks, tree = 1.57 MB, solutions = 2)
    732   622      292.8789   505      281.0000      300.0000   959489    6.76%
    753   637      292.8789   509      281.0000      300.0000   965696    6.76%
    775   647    infeasible            281.0000      300.0000   972932    6.76%
    784   645        cutoff            281.0000      300.0000   982485    6.76%
    786   647      299.4214   954      281.0000      300.0000   992116    6.76%
    800   661      299.4213   925      281.0000      300.0000   994218    6.76%
    803   664      299.7951   824      281.0000      300.0000  1003330    6.76%
    809   670      299.7251   835      281.0000      300.0000  1011520    6.76%
    816   677      299.4932   869      281.0000      300.0000  1018456    6.76%
    821   682      299.4557   906      281.0000      300.0000  1027588    6.76%
Elapsed time = 583.82 sec. (621733.47 ticks, tree = 1.74 MB, solutions = 2)
    828   689      298.9706   837      281.0000      300.0000  1036072    6.76%
    836   697      298.7673   762      281.0000      300.0000  1041806    6.76%
    845   706      297.9412   783      281.0000      300.0000  1047949    6.76%

Clique cuts applied:  73
Zero-half cuts applied:  26
Lift and project cuts applied:  1

Root node processing (before b&c):
  Real time             =   90.82 sec. (92233.59 ticks)
Sequential b&c:
  Real time             =  506.08 sec. (543784.08 ticks)
                          ------------
Total (root+branch&cut) =  596.90 sec. (636017.67 ticks)
Primal:	281
Dual:	300
Status:	Feasible
Time:	596.88
Sequence:
	17
	5
	10
	5
	15
	2
	6
	15
	0
	7
	10
	6
	15
	0
	15
	7
	0
	15
	6
	2
	15
	0
	10
	6
	15
	2
	15
	5
	0
	10
	4
	15
	0
	7
	15
	1
	15
	7
	10
	0
	10
	8
	4
	10
	8
	10
	5
	3
	10
	5
	15
	2
	6
	15
	2
	15
	5
	11
	7
	15
	0
	13
	4
	10
	7
	15
	0
	17
	5
	10
	7
	15
	0
	17
	5
	10
	7
	10
	0
	15
	1
	15
	7
	10
	5
	12
	5
	15
	2
	15
	0
	15
	5
	11
	7
	5
	10
	8
	10
	4
	10
	8
	10
	5
	10
	7
	10
	6
	15
	0
	15
	7
	1
	15
	0
	15
	2
	6
	15
	0
	7
	10
	0
	15
	0
	4
	10
	0
	15
	7
	10
	5
	12
	5
	15
	2
	15
	1
	15
	5
	10
	7
	11
	5
	15
	0
	10
	4
	8
	10
	5
	15
	3
	5
	10
	2
	15
	5
	12
	0
	15
	7
	10
	5
	12
	0
	15
	7
	10
	0
	17
	0
	15
	7
	0
	15
	0
	7
	10
	4
	13
	0
	15
	7
	10
	0
	13
	4
	15
	2
	15
	5
	10
	8
	4
	10
	8
	10
	5
	7
	10
	4
	13
	5
	15
	2
	15
	5
	12
	5
	15
	2
	5
	10
	5
	3
	15
	0
	15
	8
	10
	4
	8
	10
	5
	15
	2
	15
	5
	12
	0
	15
	7
	10
	5
	8
	10
	4
	10
	8
	15
	0
	7
	10
	6
	15
	0
	15
	7
	1
	15
	7
	10
	0
	13
	4
	15
	2
	15
	5
	10
	8
	10
	4
	10
	5
	0
	15
	3
	15
	5
	10
	5
	3
	15
	5
	10
	5
	10
	4
	13
